c This Formular is generated by mcnf
c
c    horn? no 
c    forced? no 
c    mixed sat? no 
c    clause length = 3 
c
p cnf 20  91 
 18 -5 16 0
1 -5 8 0
-7 16 -20 0
18 -14 15 0
19 -3 -11 0
-6 -3 -13 0
15 -20 1 0
11 -10 -4 0
-2 -4 14 0
10 19 5 0
18 12 -5 0
3 20 -18 0
-8 -15 -1 0
12 -1 -15 0
-8 2 -11 0
-13 19 -9 0
-17 -11 -14 0
6 -3 -12 0
-18 5 11 0
4 17 -14 0
-1 -4 -19 0
%
0

84 72 35 60 64 63 19 78 5 87 70 59 62 52 59 5 66 26 64 21
